data/instances/vrp_files/train_23.vrp
NAME : 23
COMMENT : Generated instance No. 23
TYPE : CVRP
DIMENSION : 21
EDGE_WEIGHT_TYPE : EUC_2D
CAPACITY : 30
NODE_COORD_SECTION
 1 579 662
 2 220 418
 3 203 840
 4 174 960
 5 415 846
 6 628 735
 7 767 504
 8 543 513
 9 588 29
 10 395 606
 11 597 792
 12 655 992
 13 283 359
 14 383 465
 15 835 235
 16 776 405
 17 601 632
 18 372 512
 19 413 69
 20 437 97
 21 405 592
DEMAND_SECTION
1 0
2 7
3 6
4 1
5 9
6 9
7 2
8 3
9 5
10 5
11 1
12 8
13 8
14 4
15 7
16 10
17 3
18 6
19 10
20 10
21 9
DEPOT_SECTION
 1
 -1
EOF